# Solution for model GasLib-40
# Objective value = 1.3939143632479315e+01
loadshed[innode_1] 0
loadshed[innode_2] 0
loadshed[innode_3] 0
loadshed[innode_4] 0
loadshed[innode_5] 0
loadshed[innode_6] 0
loadshed[innode_7] 0
loadshed[innode_8] 0
loadshed[source_1] -2.8166145608560078e-01
loadshed[source_2] 6.6430509716084107e-02
loadshed[source_3] 3.0340299482425181e-01
loadshed[sink_1] 0
loadshed[sink_2] 0
loadshed[sink_3] 0
loadshed[sink_4] 0
loadshed[sink_5] 0
loadshed[sink_6] 0
loadshed[sink_7] 0
loadshed[sink_8] 0
loadshed[sink_9] 0
loadshed[sink_10] 0
loadshed[sink_11] 0
loadshed[sink_12] 8.5232980173121919e-01
loadshed[sink_13] 0
loadshed[sink_14] 0
loadshed[sink_15] 0
loadshed[sink_16] 0
loadshed[sink_17] 0
loadshed[sink_18] 0
loadshed[sink_19] 0
loadshed[sink_20] 0
loadshed[sink_21] 0
loadshed[sink_22] 0
loadshed[sink_23] 0
loadshed[sink_24] 0
loadshed[sink_25] 0
loadshed[sink_26] 0
loadshed[sink_27] 0
loadshed[sink_28] 0
loadshed[sink_29] 0
flow[source_1,sink_3] 2.0261821560964376e+02
flow[innode_1,sink_16] 1.6354166666666970e+01
flow[innode_6,sink_13] 4.3539526192779121e+00
flow[sink_13,sink_14] -1.2000214047388756e+01
flow[sink_14,sink_10] -2.8354380714055424e+01
flow[sink_25,sink_26] 2.3137335636752073e+02
flow[sink_26,sink_9] 1.3027983108473640e+02
flow[sink_9,sink_18] 1.1392566441806973e+02
flow[sink_26,sink_4] 8.4739358616117684e+01
flow[sink_4,sink_20] 2.2772990550547050e+01
flow[sink_18,sink_6] 9.7571497751403058e+01
flow[sink_25,innode_8] -1.6990988227630740e+02
flow[sink_6,sink_7] 48.5089977514026
flow[sink_6,sink_22] 3.2708333333333641e+01
flow[sink_7,sink_24] 3.5123356367520692e+01
flow[sink_22,sink_1] 1.6354166666666970e+01
flow[sink_24,sink_21] 1.8769189700854021e+01
flow[sink_21,sink_12] 2.4150230341873531e+00
flow[sink_7,sink_5] -2.9685252827843271e+00
flow[sink_5,sink_17] -1.9322691949450927e+01
flow[sink_17,sink_4] -4.5612201398903963e+01
flow[sink_17,sink_8] 9.9353427827863179e+00
flow[sink_3,sink_23] 16.3541666666697
flow[sink_8,sink_20] -6.4188238838802363e+00
flow[sink_25,sink_20] 0
flow[sink_25,sink_15] -8.2171593377157777e+01
flow[sink_15,sink_29] -9.8525760043824448e+01
flow[sink_29,sink_28] 1.6354166666667879e+01
flow[sink_29,sink_2] 1.6354166666684250e+01
flow[sink_2,sink_15] 0
flow[sink_29,innode_7] -1.4758826004384267e+02
flow[innode_4,sink_19] 9.3771047380722422e+01
flow[sink_19,innode_3] 3.7779111011983353e+01
flow[innode_4,innode_5] 1.6354166666679703e+01
flow[sink_27,innode_5] -1.6354166666679703e+01
flow[sink_27,sink_19] 0
flow[sink_10,sink_11] 3.2708333333333641e+01
flow[sink_10,innode_2] -3.9637769702072376e+01
flow[sink_10,innode_3] -3.7779111011983353e+01
flow[innode_6,sink_25] -4.3539526192779121e+00
flow[sink_11,innode_1] 1.6354166666666970e+01
flow[sink_19,innode_2] 3.9637769702072376e+01
flow[source_3,innode_4] 1.1012521404740212e+02
flow[source_2,innode_7] 1.4758826004384267e+02
flow[sink_3,innode_8] 1.6990988227630740e+02
pressure[innode_1] 74.9676247949078
pressure[innode_2] 7.7214345940616425e+01
pressure[innode_3] 7.7130688377300615e+01
pressure[innode_4] 81.01325
pressure[innode_5] 8.1002000741808786e+01
pressure[innode_6] 7.3780730916373741e+01
pressure[innode_7] 81.01325
pressure[innode_8] 8.0335974708180871e+01
pressure[source_1] 81.01325
pressure[source_2] 81.01325
pressure[source_3] 81.01325
pressure[sink_1] 4.0858959967637226e+01
pressure[sink_2] 76.651572721708
pressure[sink_3] 8.0335974708180871e+01
pressure[sink_4] 4.6711259935742255e+01
pressure[sink_5] 4.3528711118056037e+01
pressure[sink_6] 42.9600375780246
pressure[sink_7] 4.2294124666848035e+01
pressure[sink_8] 4.4593225705280773e+01
pressure[sink_9] 4.9687657172036552e+01
pressure[sink_10] 7.5119326102511351e+01
pressure[sink_11] 74.9676247949078
pressure[sink_12] 1.01325
pressure[sink_13] 7.3756728303196738e+01
pressure[sink_14] 7.3778203708426773e+01
pressure[sink_15] 7.4179343214047719e+01
pressure[sink_16] 7.3945974960090126e+01
pressure[sink_17] 4.4968111999861136e+01
pressure[sink_18] 4.5565487076513534e+01
pressure[sink_19] 7.7214345940616425e+01
pressure[sink_20] 4.5040527460327183e+01
pressure[sink_21] 1.8726473702893707e+00
pressure[sink_22] 4.1922729109992233e+01
pressure[sink_23] 8.0171256696521084e+01
pressure[sink_24] 2.0804987075693218e+00
pressure[sink_25] 7.3780730916373741e+01
pressure[sink_26] 5.7485241305446173e+01
pressure[sink_27] 8.0866291377726043e+01
pressure[sink_28] 7.6770559946554485e+01
pressure[sink_29] 7.7065842220171660e+01
interdiction[source_1,sink_3] 0
interdiction[innode_1,sink_16] 0
interdiction[innode_6,sink_13] 0
interdiction[sink_13,sink_14] 0
interdiction[sink_14,sink_10] 0
interdiction[sink_25,sink_26] 0
interdiction[sink_26,sink_9] 0
interdiction[sink_9,sink_18] 0
interdiction[sink_26,sink_4] 0
interdiction[sink_4,sink_20] 0
interdiction[sink_18,sink_6] 0
interdiction[sink_25,innode_8] 0
interdiction[sink_6,sink_7] 0
interdiction[sink_6,sink_22] 0
interdiction[sink_7,sink_24] 0
interdiction[sink_22,sink_1] 0
interdiction[sink_24,sink_21] 0
interdiction[sink_21,sink_12] 0
interdiction[sink_7,sink_5] 0
interdiction[sink_5,sink_17] 0
interdiction[sink_17,sink_4] 0
interdiction[sink_17,sink_8] 0
interdiction[sink_3,sink_23] 0
interdiction[sink_8,sink_20] 0
interdiction[sink_25,sink_20] 1
interdiction[sink_25,sink_15] 0
interdiction[sink_15,sink_29] 0
interdiction[sink_29,sink_28] 0
interdiction[sink_29,sink_2] 0
interdiction[sink_2,sink_15] 1
interdiction[sink_29,innode_7] 0
interdiction[innode_4,sink_19] 0
interdiction[sink_19,innode_3] 0
interdiction[innode_4,innode_5] 0
interdiction[sink_27,innode_5] 0
interdiction[sink_27,sink_19] 1
interdiction[sink_10,sink_11] 0
interdiction[sink_10,innode_2] 0
interdiction[sink_10,innode_3] 0
interdiction[innode_6,sink_25] 0
interdiction[sink_11,innode_1] 0
interdiction[sink_19,innode_2] 0
interdiction[source_3,innode_4] 0
interdiction[source_2,innode_7] 0
interdiction[sink_3,innode_8] 0
WCcheckFlow[source_1,sink_3] 39
WCcheckFlow[innode_1,sink_16] 1
WCcheckFlow[innode_6,sink_13] 13
WCcheckFlow[sink_13,sink_14] 12
WCcheckFlow[sink_14,sink_10] 11
WCcheckFlow[sink_25,sink_26] 15
WCcheckFlow[sink_26,sink_9] 12
WCcheckFlow[sink_9,sink_18] 11
WCcheckFlow[sink_26,sink_4] 2
WCcheckFlow[sink_4,sink_20] 1
WCcheckFlow[sink_18,sink_6] 10
WCcheckFlow[sink_25,innode_8] -36
WCcheckFlow[sink_6,sink_7] 7
WCcheckFlow[sink_6,sink_22] 2
WCcheckFlow[sink_7,sink_24] 3
WCcheckFlow[sink_22,sink_1] 1
WCcheckFlow[sink_24,sink_21] 2
WCcheckFlow[sink_21,sink_12] 1
WCcheckFlow[sink_7,sink_5] 3
WCcheckFlow[sink_5,sink_17] 2
WCcheckFlow[sink_17,sink_4] 0
WCcheckFlow[sink_17,sink_8] 1
WCcheckFlow[sink_3,sink_23] 1
WCcheckFlow[sink_8,sink_20] 0
WCcheckFlow[sink_25,sink_20] 0
WCcheckFlow[sink_25,sink_15] 6
WCcheckFlow[sink_15,sink_29] 5
WCcheckFlow[sink_29,sink_28] 1
WCcheckFlow[sink_29,sink_2] 1
WCcheckFlow[sink_2,sink_15] 0
WCcheckFlow[sink_29,innode_7] 2
WCcheckFlow[innode_4,sink_19] -4
WCcheckFlow[sink_19,innode_3] -5
WCcheckFlow[innode_4,innode_5] 2
WCcheckFlow[sink_27,innode_5] -1
WCcheckFlow[sink_27,sink_19] 0
WCcheckFlow[sink_10,sink_11] 3
WCcheckFlow[sink_10,innode_2] 1
WCcheckFlow[sink_10,innode_3] 6
WCcheckFlow[innode_6,sink_25] -14
WCcheckFlow[sink_11,innode_1] 2
WCcheckFlow[sink_19,innode_2] 0
WCcheckFlow[source_3,innode_4] -1
WCcheckFlow[source_2,innode_7] -1
WCcheckFlow[sink_3,innode_8] 37
